&CONTROL
  calculation = 'scf',
  pseudo_dir = './',
  outdir='./'
  prefix = 'test',
etot_conv_thr=1.D-7,
forc_conv_thr=2.D-6,
nstep =200,
/
&SYSTEM
  ibrav = 4,
  celldm(1) = 12.0809,
  celldm(3) = 2.0867,
  nat = 20,
  ntyp = 4,
  ecutwfc = 40,
  ecutrho = 320,
  occupations = 'smearing',
  smearing = 'gaussian',
  degauss = 0.02,
  input_dft = 'pbe',
  vdw_corr = 'grimme-d2',
  london_s6 = 0.5,
/
&ELECTRONS
  electron_maxstep = 100,
  diagonalization = 'david',
  conv_thr = 1.0d-6,
  mixing_beta = 0.12,
/
&IONS
/
&CELL
  press = 0.0,
/
ATOMIC_SPECIES
P   30.974    p_pbe_v1.5.uspp.F.UPF
Cu  63.546    cu_pbe_v1.2.uspp.F.UPF
In  114.818   in_pbe_v1.4.uspp.F.UPF
Se  78.971    se_pbe_v1.uspp.F.UPF

ATOMIC_POSITIONS (crystal)
Cu 0.666700000 0.333300000 0.308668441
Cu 0.333300000 0.666700000 0.688908594
In 0.000000000 0.000000000 0.245630647
In 0.000000000 0.000000000 0.764819930
P 0.333300000 0.666700000 0.162356275
P 0.333300000 0.666700000 0.335149730
P 0.666700000 0.333300000 -0.172494896
P 0.666700000 0.333300000 0.658362301
Se 0.009500000 0.340100000 0.119303808
Se -0.340100000 -0.330600000 0.105329420
Se 0.330600000 -0.009500000 0.138168931
Se -0.340100000 -0.009500000 0.374063926
Se 0.330600000 0.340100000 0.368289773
Se 0.009500000 -0.330600000 0.382692926
Se -0.009500000 -0.340100000 -0.131776334
Se 0.340100000 0.330600000 -0.133919010
Se -0.330600000 0.009500000 -0.107357899
Se 0.340100000 0.009500000 0.603712102
Se -0.330600000 -0.340100000 0.609002902
Se -0.009500000 0.330600000 0.624239077

 
K_POINTS {automatic}
6 6 6 1 1 1