&CONTROL
  calculation = 'scf',
  pseudo_dir = './',
  outdir='./'
  prefix = 'test',
etot_conv_thr=1.D-7,
forc_conv_thr=2.D-6,
nstep =200,
/
&SYSTEM
  ibrav = 4,
  celldm(1) = 12.0809,
  celldm(3) = 2.0867,
  nat = 20,
  ntyp = 4,
  ecutwfc = 40,
  ecutrho = 320,
  occupations = 'smearing',
  smearing = 'gaussian',
  degauss = 0.02,
  input_dft = 'pbe',
  vdw_corr = 'grimme-d2',
  london_s6 = 0.5,
/
&ELECTRONS
  electron_maxstep = 100,
  diagonalization = 'david',
  conv_thr = 1.0d-6,
  mixing_beta = 0.12,
/
&IONS
/
&CELL
  press = 0.0,
/
ATOMIC_SPECIES
P   30.974    p_pbe_v1.5.uspp.F.UPF
Cu  63.546    cu_pbe_v1.2.uspp.F.UPF
In  114.818   in_pbe_v1.4.uspp.F.UPF
Se  78.971    se_pbe_v1.uspp.F.UPF

ATOMIC_POSITIONS (crystal)
Cu 0.666700000 0.333300000 0.183580019
Cu 0.333300000 0.666700000 0.706635643
In 0.000000000 0.000000000 0.253341612
In 0.000000000 0.000000000 0.740655156
P 0.333300000 0.666700000 0.166874374
P 0.333300000 0.666700000 0.336107851
P 0.666700000 0.333300000 -0.170328165
P 0.666700000 0.333300000 0.666850841
Se 0.009500000 0.340100000 0.138841334
Se -0.340100000 -0.330600000 0.131181197
Se 0.330600000 -0.009500000 0.128539554
Se -0.340100000 -0.009500000 0.390345147
Se 0.330600000 0.340100000 0.392063379
Se 0.009500000 -0.330600000 0.390386616
Se -0.009500000 -0.340100000 -0.121045205
Se 0.340100000 0.330600000 -0.109581110
Se -0.330600000 0.009500000 -0.131016056
Se 0.340100000 0.009500000 0.627733452
Se -0.330600000 -0.340100000 0.604790894
Se -0.009500000 0.330600000 0.622518972

 
K_POINTS {automatic}
6 6 6 1 1 1