&CONTROL
  calculation = 'scf',
  pseudo_dir = './',
  outdir='./'
  prefix = 'test',
etot_conv_thr=1.D-7,
forc_conv_thr=2.D-6,
nstep =200,
/
&SYSTEM
  ibrav = 4,
  celldm(1) = 12.0809,
  celldm(3) = 2.0867,
  nat = 20,
  ntyp = 4,
  ecutwfc = 40,
  ecutrho = 320,
  occupations = 'smearing',
  smearing = 'gaussian',
  degauss = 0.02,
  input_dft = 'pbe',
  vdw_corr = 'grimme-d2',
  london_s6 = 0.5,
/
&ELECTRONS
  electron_maxstep = 100,
  diagonalization = 'david',
  conv_thr = 1.0d-6,
  mixing_beta = 0.12,
/
&IONS
/
&CELL
  press = 0.0,
/
ATOMIC_SPECIES
P   30.974    p_pbe_v1.5.uspp.F.UPF
Cu  63.546    cu_pbe_v1.2.uspp.F.UPF
In  114.818   in_pbe_v1.4.uspp.F.UPF
Se  78.971    se_pbe_v1.uspp.F.UPF

ATOMIC_POSITIONS (crystal)
Cu 0.666700000 0.333300000 0.244137212
Cu 0.333300000 0.666700000 0.702962209
In 0.000000000 0.000000000 0.262555340
In 0.000000000 0.000000000 0.748501453
P 0.333300000 0.666700000 0.164797204
P 0.333300000 0.666700000 0.334100717
P 0.666700000 0.333300000 -0.167865114
P 0.666700000 0.333300000 0.657589087
Se 0.009500000 0.340100000 0.134020951
Se -0.340100000 -0.330600000 0.107745950
Se 0.330600000 -0.009500000 0.114115517
Se -0.340100000 -0.009500000 0.395311528
Se 0.330600000 0.340100000 0.371214763
Se 0.009500000 -0.330600000 0.360956096
Se -0.009500000 -0.340100000 -0.108503273
Se 0.340100000 0.330600000 -0.113374080
Se -0.330600000 0.009500000 -0.137195978
Se 0.340100000 0.009500000 0.613112821
Se -0.330600000 -0.340100000 0.621383709
Se -0.009500000 0.330600000 0.606976357

 
K_POINTS {automatic}
6 6 6 1 1 1