&CONTROL
  calculation = 'scf',
  pseudo_dir = './',
  outdir='./'
  prefix = 'test',
etot_conv_thr=1.D-7,
forc_conv_thr=2.D-6,
nstep =200,
/
&SYSTEM
  ibrav = 4,
  celldm(1) = 12.0809,
  celldm(3) = 2.0867,
  nat = 20,
  ntyp = 4,
  ecutwfc = 40,
  ecutrho = 320,
  occupations = 'smearing',
  smearing = 'gaussian',
  degauss = 0.02,
  input_dft = 'pbe',
  vdw_corr = 'grimme-d2',
  london_s6 = 0.5,
/
&ELECTRONS
  electron_maxstep = 100,
  diagonalization = 'david',
  conv_thr = 1.0d-6,
  mixing_beta = 0.12,
/
&IONS
/
&CELL
  press = 0.0,
/
ATOMIC_SPECIES
P   30.974    p_pbe_v1.5.uspp.F.UPF
Cu  63.546    cu_pbe_v1.2.uspp.F.UPF
In  114.818   in_pbe_v1.4.uspp.F.UPF
Se  78.971    se_pbe_v1.uspp.F.UPF

ATOMIC_POSITIONS (crystal)
Cu 0.666700000 0.333300000 0.237664999
Cu 0.333300000 0.666700000 0.692098549
In 0.000000000 0.000000000 0.265350741
In 0.000000000 0.000000000 0.731690104
P 0.333300000 0.666700000 0.169073066
P 0.333300000 0.666700000 0.335108095
P 0.666700000 0.333300000 -0.161079626
P 0.666700000 0.333300000 0.667656995
Se 0.009500000 0.340100000 0.130401291
Se -0.340100000 -0.330600000 0.131943555
Se 0.330600000 -0.009500000 0.109407777
Se -0.340100000 -0.009500000 0.394717384
Se 0.330600000 0.340100000 0.371704015
Se 0.009500000 -0.330600000 0.394087137
Se -0.009500000 -0.340100000 -0.126727752
Se 0.340100000 0.330600000 -0.114452500
Se -0.330600000 0.009500000 -0.103639797
Se 0.340100000 0.009500000 0.608837584
Se -0.330600000 -0.340100000 0.600273154
Se -0.009500000 0.330600000 0.617026594

 
K_POINTS {automatic}
6 6 6 1 1 1