&CONTROL
  calculation = 'scf',
  pseudo_dir = './',
  outdir='./'
  prefix = 'test',
etot_conv_thr=1.D-7,
forc_conv_thr=2.D-6,
nstep =200,
/
&SYSTEM
  ibrav = 4,
  celldm(1) = 12.0809,
  celldm(3) = 2.0867,
  nat = 20,
  ntyp = 4,
  ecutwfc = 40,
  ecutrho = 320,
  occupations = 'smearing',
  smearing = 'gaussian',
  degauss = 0.02,
  input_dft = 'pbe',
  vdw_corr = 'grimme-d2',
  london_s6 = 0.5,
/
&ELECTRONS
  electron_maxstep = 100,
  diagonalization = 'david',
  conv_thr = 1.0d-6,
  mixing_beta = 0.12,
/
&IONS
/
&CELL
  press = 0.0,
/
ATOMIC_SPECIES
P   30.974    p_pbe_v1.5.uspp.F.UPF
Cu  63.546    cu_pbe_v1.2.uspp.F.UPF
In  114.818   in_pbe_v1.4.uspp.F.UPF
Se  78.971    se_pbe_v1.uspp.F.UPF

ATOMIC_POSITIONS (crystal)
Cu 0.666700000 0.333300000 0.220849748
Cu 0.333300000 0.666700000 0.827622414
In 0.000000000 0.000000000 0.232843869
In 0.000000000 0.000000000 0.749335892
P 0.333300000 0.666700000 0.171272506
P 0.333300000 0.666700000 0.328728707
P 0.666700000 0.333300000 -0.157150235
P 0.666700000 0.333300000 0.672373516
Se 0.009500000 0.340100000 0.128281079
Se -0.340100000 -0.330600000 0.112882145
Se 0.330600000 -0.009500000 0.101354110
Se -0.340100000 -0.009500000 0.371853790
Se 0.330600000 0.340100000 0.375558924
Se 0.009500000 -0.330600000 0.363712054
Se -0.009500000 -0.340100000 -0.131140399
Se 0.340100000 0.330600000 -0.124716582
Se -0.330600000 0.009500000 -0.127634674
Se 0.340100000 0.009500000 0.626360941
Se -0.330600000 -0.340100000 0.630899690
Se -0.009500000 0.330600000 0.600351160

 
K_POINTS {automatic}
6 6 6 1 1 1