&CONTROL
  calculation = 'scf',
  pseudo_dir = './',
  outdir='./'
  prefix = 'test',
etot_conv_thr=1.D-7,
forc_conv_thr=2.D-6,
nstep =200,
/
&SYSTEM
  ibrav = 4,
  celldm(1) = 12.0809,
  celldm(3) = 2.0867,
  nat = 20,
  ntyp = 4,
  ecutwfc = 40,
  ecutrho = 320,
  occupations = 'smearing',
  smearing = 'gaussian',
  degauss = 0.02,
  input_dft = 'pbe',
  vdw_corr = 'grimme-d2',
  london_s6 = 0.5,
/
&ELECTRONS
  electron_maxstep = 100,
  diagonalization = 'david',
  conv_thr = 1.0d-6,
  mixing_beta = 0.12,
/
&IONS
/
&CELL
  press = 0.0,
/
ATOMIC_SPECIES
P   30.974    p_pbe_v1.5.uspp.F.UPF
Cu  63.546    cu_pbe_v1.2.uspp.F.UPF
In  114.818   in_pbe_v1.4.uspp.F.UPF
Se  78.971    se_pbe_v1.uspp.F.UPF

ATOMIC_POSITIONS (crystal)
Cu 0.666700000 0.333300000 0.206091628
Cu 0.333300000 0.666700000 0.675197373
In 0.000000000 0.000000000 0.233213897
In 0.000000000 0.000000000 0.757915955
P 0.333300000 0.666700000 0.160618023
P 0.333300000 0.666700000 0.329585028
P 0.666700000 0.333300000 -0.172445640
P 0.666700000 0.333300000 0.666270418
Se 0.009500000 0.340100000 0.121411378
Se -0.340100000 -0.330600000 0.114991560
Se 0.330600000 -0.009500000 0.129404817
Se -0.340100000 -0.009500000 0.369099551
Se 0.330600000 0.340100000 0.369752863
Se 0.009500000 -0.330600000 0.395890028
Se -0.009500000 -0.340100000 -0.134974208
Se 0.340100000 0.330600000 -0.134937179
Se -0.330600000 0.009500000 -0.122087406
Se 0.340100000 0.009500000 0.630158401
Se -0.330600000 -0.340100000 0.603355398
Se -0.009500000 0.330600000 0.616746950

 
K_POINTS {automatic}
6 6 6 1 1 1