&CONTROL
  calculation = 'scf',
  pseudo_dir = './',
  outdir='./'
  prefix = 'test',
etot_conv_thr=1.D-7,
forc_conv_thr=2.D-6,
nstep =200,
/
&SYSTEM
  ibrav = 4,
  celldm(1) = 12.0809,
  celldm(3) = 2.0867,
  nat = 20,
  ntyp = 4,
  ecutwfc = 40,
  ecutrho = 320,
  occupations = 'smearing',
  smearing = 'gaussian',
  degauss = 0.02,
  input_dft = 'pbe',
  vdw_corr = 'grimme-d2',
  london_s6 = 0.5,
/
&ELECTRONS
  electron_maxstep = 100,
  diagonalization = 'david',
  conv_thr = 1.0d-6,
  mixing_beta = 0.12,
/
&IONS
/
&CELL
  press = 0.0,
/
ATOMIC_SPECIES
P   30.974    p_pbe_v1.5.uspp.F.UPF
Cu  63.546    cu_pbe_v1.2.uspp.F.UPF
In  114.818   in_pbe_v1.4.uspp.F.UPF
Se  78.971    se_pbe_v1.uspp.F.UPF

ATOMIC_POSITIONS (crystal)
Cu 0.666700000 0.333300000 0.266632587
Cu 0.333300000 0.666700000 0.712153599
In 0.000000000 0.000000000 0.234918575
In 0.000000000 0.000000000 0.736802022
P 0.333300000 0.666700000 0.157688289
P 0.333300000 0.666700000 0.336790597
P 0.666700000 0.333300000 -0.171917757
P 0.666700000 0.333300000 0.670288293
Se 0.009500000 0.340100000 0.130057340
Se -0.340100000 -0.330600000 0.130928469
Se 0.330600000 -0.009500000 0.139130763
Se -0.340100000 -0.009500000 0.386668019
Se 0.330600000 0.340100000 0.388943384
Se 0.009500000 -0.330600000 0.364831593
Se -0.009500000 -0.340100000 -0.114216587
Se 0.340100000 0.330600000 -0.121938589
Se -0.330600000 0.009500000 -0.132598217
Se 0.340100000 0.009500000 0.616765534
Se -0.330600000 -0.340100000 0.609977219
Se -0.009500000 0.330600000 0.622939423

 
K_POINTS {automatic}
6 6 6 1 1 1