&CONTROL
  calculation = 'scf',
  pseudo_dir = './',
  outdir='./'
  prefix = 'test',
etot_conv_thr=1.D-7,
forc_conv_thr=2.D-6,
nstep =200,
/
&SYSTEM
  ibrav = 4,
  celldm(1) = 12.0809,
  celldm(3) = 2.0867,
  nat = 20,
  ntyp = 4,
  ecutwfc = 40,
  ecutrho = 320,
  occupations = 'smearing',
  smearing = 'gaussian',
  degauss = 0.02,
  input_dft = 'pbe',
  vdw_corr = 'grimme-d2',
  london_s6 = 0.5,
/
&ELECTRONS
  electron_maxstep = 100,
  diagonalization = 'david',
  conv_thr = 1.0d-6,
  mixing_beta = 0.12,
/
&IONS
/
&CELL
  press = 0.0,
/
ATOMIC_SPECIES
P   30.974    p_pbe_v1.5.uspp.F.UPF
Cu  63.546    cu_pbe_v1.2.uspp.F.UPF
In  114.818   in_pbe_v1.4.uspp.F.UPF
Se  78.971    se_pbe_v1.uspp.F.UPF

ATOMIC_POSITIONS (crystal)
Cu 0.666700000 0.333300000 0.227139520
Cu 0.333300000 0.666700000 0.667992876
In 0.000000000 0.000000000 0.237467136
In 0.000000000 0.000000000 0.741794035
P 0.333300000 0.666700000 0.165007938
P 0.333300000 0.666700000 0.330984603
P 0.666700000 0.333300000 -0.165637397
P 0.666700000 0.333300000 0.657205911
Se 0.009500000 0.340100000 0.117671493
Se -0.340100000 -0.330600000 0.125406547
Se 0.330600000 -0.009500000 0.129386489
Se -0.340100000 -0.009500000 0.374040778
Se 0.330600000 0.340100000 0.391706386
Se 0.009500000 -0.330600000 0.375569204
Se -0.009500000 -0.340100000 -0.115156436
Se 0.340100000 0.330600000 -0.137186437
Se -0.330600000 0.009500000 -0.137859552
Se 0.340100000 0.009500000 0.603558916
Se -0.330600000 -0.340100000 0.634788965
Se -0.009500000 0.330600000 0.619061070

 
K_POINTS {automatic}
6 6 6 1 1 1