&CONTROL
  calculation = 'scf',
  pseudo_dir = './',
  outdir='./'
  prefix = 'test',
etot_conv_thr=1.D-7,
forc_conv_thr=2.D-6,
nstep =200,
/
&SYSTEM
  ibrav = 4,
  celldm(1) = 12.0809,
  celldm(3) = 2.0867,
  nat = 20,
  ntyp = 4,
  ecutwfc = 40,
  ecutrho = 320,
  occupations = 'smearing',
  smearing = 'gaussian',
  degauss = 0.02,
  input_dft = 'pbe',
  vdw_corr = 'grimme-d2',
  london_s6 = 0.5,
/
&ELECTRONS
  electron_maxstep = 100,
  diagonalization = 'david',
  conv_thr = 1.0d-6,
  mixing_beta = 0.12,
/
&IONS
/
&CELL
  press = 0.0,
/
ATOMIC_SPECIES
P   30.974    p_pbe_v1.5.uspp.F.UPF
Cu  63.546    cu_pbe_v1.2.uspp.F.UPF
In  114.818   in_pbe_v1.4.uspp.F.UPF
Se  78.971    se_pbe_v1.uspp.F.UPF

ATOMIC_POSITIONS (crystal)
Cu 0.666700000 0.333300000 0.200933710
Cu 0.333300000 0.666700000 0.689945584
In 0.000000000 0.000000000 0.257785350
In 0.000000000 0.000000000 0.759570814
P 0.333300000 0.666700000 0.164898381
P 0.333300000 0.666700000 0.336215360
P 0.666700000 0.333300000 -0.165451407
P 0.666700000 0.333300000 0.671417506
Se 0.009500000 0.340100000 0.121760643
Se -0.340100000 -0.330600000 0.110879018
Se 0.330600000 -0.009500000 0.101031332
Se -0.340100000 -0.009500000 0.393284388
Se 0.330600000 0.340100000 0.393688142
Se 0.009500000 -0.330600000 0.369246242
Se -0.009500000 -0.340100000 -0.106924520
Se 0.340100000 0.330600000 -0.126581543
Se -0.330600000 0.009500000 -0.107445746
Se 0.340100000 0.009500000 0.615459705
Se -0.330600000 -0.340100000 0.603962076
Se -0.009500000 0.330600000 0.628353799

 
K_POINTS {automatic}
6 6 6 1 1 1