&CONTROL
  calculation = 'scf',
  pseudo_dir = './',
  outdir='./'
  prefix = 'test',
etot_conv_thr=1.D-7,
forc_conv_thr=2.D-6,
nstep =200,
/
&SYSTEM
  ibrav = 4,
  celldm(1) = 12.0809,
  celldm(3) = 2.0867,
  nat = 20,
  ntyp = 4,
  ecutwfc = 40,
  ecutrho = 320,
  occupations = 'smearing',
  smearing = 'gaussian',
  degauss = 0.02,
  input_dft = 'pbe',
  vdw_corr = 'grimme-d2',
  london_s6 = 0.5,
/
&ELECTRONS
  electron_maxstep = 100,
  diagonalization = 'david',
  conv_thr = 1.0d-6,
  mixing_beta = 0.12,
/
&IONS
/
&CELL
  press = 0.0,
/
ATOMIC_SPECIES
P   30.974    p_pbe_v1.5.uspp.F.UPF
Cu  63.546    cu_pbe_v1.2.uspp.F.UPF
In  114.818   in_pbe_v1.4.uspp.F.UPF
Se  78.971    se_pbe_v1.uspp.F.UPF

ATOMIC_POSITIONS (crystal)
Cu 0.666700000 0.333300000 0.186239747
Cu 0.333300000 0.666700000 0.687852754
In 0.000000000 0.000000000 0.257842475
In 0.000000000 0.000000000 0.763006777
P 0.333300000 0.666700000 0.173221881
P 0.333300000 0.666700000 0.326015014
P 0.666700000 0.333300000 -0.158561091
P 0.666700000 0.333300000 0.667287059
Se 0.009500000 0.340100000 0.107046720
Se -0.340100000 -0.330600000 0.121994077
Se 0.330600000 -0.009500000 0.139553991
Se -0.340100000 -0.009500000 0.393940515
Se 0.330600000 0.340100000 0.386950827
Se 0.009500000 -0.330600000 0.377786909
Se -0.009500000 -0.340100000 -0.130524581
Se 0.340100000 0.330600000 -0.106002160
Se -0.330600000 0.009500000 -0.107733128
Se 0.340100000 0.009500000 0.628721279
Se -0.330600000 -0.340100000 0.613039933
Se -0.009500000 0.330600000 0.611911275

 
K_POINTS {automatic}
6 6 6 1 1 1