&CONTROL
  calculation = 'scf',
  pseudo_dir = './',
  outdir='./'
  prefix = 'test',
etot_conv_thr=1.D-7,
forc_conv_thr=2.D-6,
nstep =200,
/
&SYSTEM
  ibrav = 4,
  celldm(1) = 12.0809,
  celldm(3) = 2.0867,
  nat = 20,
  ntyp = 4,
  ecutwfc = 40,
  ecutrho = 320,
  occupations = 'smearing',
  smearing = 'gaussian',
  degauss = 0.02,
  input_dft = 'pbe',
  vdw_corr = 'grimme-d2',
  london_s6 = 0.5,
/
&ELECTRONS
  electron_maxstep = 100,
  diagonalization = 'david',
  conv_thr = 1.0d-6,
  mixing_beta = 0.12,
/
&IONS
/
&CELL
  press = 0.0,
/
ATOMIC_SPECIES
P   30.974    p_pbe_v1.5.uspp.F.UPF
Cu  63.546    cu_pbe_v1.2.uspp.F.UPF
In  114.818   in_pbe_v1.4.uspp.F.UPF
Se  78.971    se_pbe_v1.uspp.F.UPF

ATOMIC_POSITIONS (crystal)
Cu 0.666700000 0.333300000 0.315419839
Cu 0.333300000 0.666700000 0.793029681
In 0.000000000 0.000000000 0.234781295
In 0.000000000 0.000000000 0.767062750
P 0.333300000 0.666700000 0.161747379
P 0.333300000 0.666700000 0.331503220
P 0.666700000 0.333300000 -0.166800720
P 0.666700000 0.333300000 0.673544175
Se 0.009500000 0.340100000 0.104059509
Se -0.340100000 -0.330600000 0.136448659
Se 0.330600000 -0.009500000 0.122370981
Se -0.340100000 -0.009500000 0.364309712
Se 0.330600000 0.340100000 0.381193949
Se 0.009500000 -0.330600000 0.371483746
Se -0.009500000 -0.340100000 -0.104931834
Se 0.340100000 0.330600000 -0.125289116
Se -0.330600000 0.009500000 -0.129924075
Se 0.340100000 0.009500000 0.601683056
Se -0.330600000 -0.340100000 0.615251714
Se -0.009500000 0.330600000 0.625068169

 
K_POINTS {automatic}
6 6 6 1 1 1