&CONTROL
  calculation = 'scf',
  pseudo_dir = './',
  outdir='./'
  prefix = 'test',
etot_conv_thr=1.D-7,
forc_conv_thr=2.D-6,
nstep =200,
/
&SYSTEM
  ibrav = 4,
  celldm(1) = 12.0809,
  celldm(3) = 2.0867,
  nat = 20,
  ntyp = 4,
  ecutwfc = 40,
  ecutrho = 320,
  occupations = 'smearing',
  smearing = 'gaussian',
  degauss = 0.02,
  input_dft = 'pbe',
  vdw_corr = 'grimme-d2',
  london_s6 = 0.5,
/
&ELECTRONS
  electron_maxstep = 100,
  diagonalization = 'david',
  conv_thr = 1.0d-6,
  mixing_beta = 0.12,
/
&IONS
/
&CELL
  press = 0.0,
/
ATOMIC_SPECIES
P   30.974    p_pbe_v1.5.uspp.F.UPF
Cu  63.546    cu_pbe_v1.2.uspp.F.UPF
In  114.818   in_pbe_v1.4.uspp.F.UPF
Se  78.971    se_pbe_v1.uspp.F.UPF

ATOMIC_POSITIONS (crystal)
Cu 0.666700000 0.333300000 0.181587218
Cu 0.333300000 0.666700000 0.774815148
In 0.000000000 0.000000000 0.249487307
In 0.000000000 0.000000000 0.763843349
P 0.333300000 0.666700000 0.163190615
P 0.333300000 0.666700000 0.336619597
P 0.666700000 0.333300000 -0.160120603
P 0.666700000 0.333300000 0.661456847
Se 0.009500000 0.340100000 0.111096899
Se -0.340100000 -0.330600000 0.129496668
Se 0.330600000 -0.009500000 0.104548272
Se -0.340100000 -0.009500000 0.390438362
Se 0.330600000 0.340100000 0.391442730
Se 0.009500000 -0.330600000 0.388407598
Se -0.009500000 -0.340100000 -0.122053640
Se 0.340100000 0.330600000 -0.122459513
Se -0.330600000 0.009500000 -0.127676009
Se 0.340100000 0.009500000 0.626964943
Se -0.330600000 -0.340100000 0.615754817
Se -0.009500000 0.330600000 0.621660645

 
K_POINTS {automatic}
6 6 6 1 1 1