&CONTROL
  calculation = 'scf',
  pseudo_dir = './',
  outdir='./'
  prefix = 'test',
etot_conv_thr=1.D-7,
forc_conv_thr=2.D-6,
nstep =200,
/
&SYSTEM
  ibrav = 4,
  celldm(1) = 12.07167,
  celldm(3) = 2.0856,
  nat = 20,
  ntyp = 4,
  ecutwfc = 40,
  ecutrho = 320,
  occupations = 'smearing',
  smearing = 'gaussian',
  degauss = 0.02,
  input_dft = 'pbe',
  vdw_corr = 'grimme-d2',
  london_s6 = 0.5
/
&ELECTRONS
  electron_maxstep = 100,
  diagonalization = 'david',
  conv_thr = 1.0d-6,
  mixing_beta = 0.12,
/
&IONS
/
&CELL
  press = 0.0,
/
ATOMIC_SPECIES
P   30.974    p_pbe_v1.5.uspp.F.UPF
Cu  63.546    cu_pbe_v1.2.uspp.F.UPF
In  114.818   in_pbe_v1.4.uspp.F.UPF
Se  78.971    se_pbe_v1.uspp.F.UPF


ATOMIC_POSITIONS (crystal)
Cu 0.666627104 0.333372896 0.329920779
Cu 0.333372896 0.666627104 0.818055529
In 0.999974922 0.000025079 0.268624780
In 0.000025079 0.999974922 0.742207977
P 0.333322688 0.666675919 0.156694223
P 0.333324081 0.666677312 0.334940380
P 0.666677312 0.333324081 0.837644933
P 0.666675919 0.333322688 0.669253702
Se 0.991284703 0.340471500 0.131109858
Se 0.659541032 0.650848147 0.121175421
Se 0.349149630 0.008718116 0.106905369
Se 0.659528500 0.008715297 0.383058382
Se 0.349151853 0.340458968 0.360262846
Se 0.991281884 0.650850370 0.361980697
Se 0.008715297 0.659528500 0.895379418
Se 0.340458968 0.349151853 0.897163767
Se 0.650850370 0.991281884 0.860230872
Se 0.340471500 0.991284703 0.632257429
Se 0.650848147 0.659541032 0.614956050
Se 0.008718116 0.349149630 0.620996879


 
K_POINTS {automatic}
6 6 6 1 1 1