&CONTROL
  calculation = 'scf',
  pseudo_dir = './',
  outdir='./'
  prefix = 'test',
etot_conv_thr=1.D-7,
forc_conv_thr=2.D-6,
nstep =200,
/
&SYSTEM
  ibrav = 4,
  celldm(1) = 12.0809,
  celldm(3) = 2.0867,
  nat = 20,
  ntyp = 4,
  ecutwfc = 40,
  ecutrho = 320,
  occupations = 'smearing',
  smearing = 'gaussian',
  degauss = 0.02,
  input_dft = 'pbe',
  vdw_corr = 'grimme-d2',
  london_s6 = 0.5,
/
&ELECTRONS
  electron_maxstep = 100,
  diagonalization = 'david',
  conv_thr = 1.0d-6,
  mixing_beta = 0.12,
/
&IONS
/
&CELL
  press = 0.0,
/
ATOMIC_SPECIES
P   30.974    p_pbe_v1.5.uspp.F.UPF
Cu  63.546    cu_pbe_v1.2.uspp.F.UPF
In  114.818   in_pbe_v1.4.uspp.F.UPF
Se  78.971    se_pbe_v1.uspp.F.UPF

ATOMIC_POSITIONS (crystal)
Cu 0.666700000 0.333300000 0.255319897
Cu 0.333300000 0.666700000 0.758983660
In 0.000000000 0.000000000 0.267780743
In 0.000000000 0.000000000 0.748159468
P 0.333300000 0.666700000 0.166069921
P 0.333300000 0.666700000 0.335040893
P 0.666700000 0.333300000 -0.172900454
P 0.666700000 0.333300000 0.664171855
Se 0.009500000 0.340100000 0.116555311
Se -0.340100000 -0.330600000 0.108864740
Se 0.330600000 -0.009500000 0.129065986
Se -0.340100000 -0.009500000 0.389376353
Se 0.330600000 0.340100000 0.399079910
Se 0.009500000 -0.330600000 0.361861552
Se -0.009500000 -0.340100000 -0.116963162
Se 0.340100000 0.330600000 -0.104255812
Se -0.330600000 0.009500000 -0.112064866
Se 0.340100000 0.009500000 0.631235163
Se -0.330600000 -0.340100000 0.612809535
Se -0.009500000 0.330600000 0.620840475

 
K_POINTS {automatic}
6 6 6 1 1 1