&CONTROL
  calculation = 'scf',
  pseudo_dir = './',
  outdir='./'
  prefix = 'test',
etot_conv_thr=1.D-7,
forc_conv_thr=2.D-6,
nstep =200,
/
&SYSTEM
  ibrav = 4,
  celldm(1) = 12.0809,
  celldm(3) = 2.0867,
  nat = 20,
  ntyp = 4,
  ecutwfc = 40,
  ecutrho = 320,
  occupations = 'smearing',
  smearing = 'gaussian',
  degauss = 0.02,
  input_dft = 'pbe',
  vdw_corr = 'grimme-d2',
  london_s6 = 0.5,
/
&ELECTRONS
  electron_maxstep = 100,
  diagonalization = 'david',
  conv_thr = 1.0d-6,
  mixing_beta = 0.12,
/
&IONS
/
&CELL
  press = 0.0,
/
ATOMIC_SPECIES
P   30.974    p_pbe_v1.5.uspp.F.UPF
Cu  63.546    cu_pbe_v1.2.uspp.F.UPF
In  114.818   in_pbe_v1.4.uspp.F.UPF
Se  78.971    se_pbe_v1.uspp.F.UPF

ATOMIC_POSITIONS (crystal)
Cu 0.666700000 0.333300000 0.177992142
Cu 0.333300000 0.666700000 0.697995768
In 0.000000000 0.000000000 0.235671509
In 0.000000000 0.000000000 0.742065007
P 0.333300000 0.666700000 0.170410117
P 0.333300000 0.666700000 0.340281008
P 0.666700000 0.333300000 -0.169531297
P 0.666700000 0.333300000 0.673731174
Se 0.009500000 0.340100000 0.105391341
Se -0.340100000 -0.330600000 0.116590084
Se 0.330600000 -0.009500000 0.117534793
Se -0.340100000 -0.009500000 0.393312324
Se 0.330600000 0.340100000 0.379835660
Se 0.009500000 -0.330600000 0.378273272
Se -0.009500000 -0.340100000 -0.130868668
Se 0.340100000 0.330600000 -0.110779198
Se -0.330600000 0.009500000 -0.102625486
Se 0.340100000 0.009500000 0.630039872
Se -0.330600000 -0.340100000 0.627612181
Se -0.009500000 0.330600000 0.608192825

 
K_POINTS {automatic}
6 6 6 1 1 1