&CONTROL
  calculation = 'scf',
  pseudo_dir = './',
  outdir='./'
  prefix = 'test',
etot_conv_thr=1.D-7,
forc_conv_thr=2.D-6,
nstep =200,
/
&SYSTEM
  ibrav = 4,
  celldm(1) = 12.07167,
  celldm(3) = 2.0856,
  nat = 20,
  ntyp = 4,
  ecutwfc = 40,
  ecutrho = 320,
  occupations = 'smearing',
  smearing = 'gaussian',
  degauss = 0.02,
  input_dft = 'pbe',
  vdw_corr = 'grimme-d2',
  london_s6 = 0.5
/
&ELECTRONS
  electron_maxstep = 100,
  diagonalization = 'david',
  conv_thr = 1.0d-6,
  mixing_beta = 0.12,
/
&IONS
/
&CELL
  press = 0.0,
/
ATOMIC_SPECIES
P   30.974    p_pbe_v1.5.uspp.F.UPF
Cu  63.546    cu_pbe_v1.2.uspp.F.UPF
In  114.818   in_pbe_v1.4.uspp.F.UPF
Se  78.971    se_pbe_v1.uspp.F.UPF


ATOMIC_POSITIONS (crystal)
Cu 0.666627104 0.333372896 0.258596189
Cu 0.333372896 0.666627104 0.758455160
In 0.999974922 0.000025079 0.247064806
In 0.000025079 0.999974922 0.743560915
P 0.333322688 0.666675919 0.158811429
P 0.333324081 0.666677312 0.329689427
P 0.666677312 0.333324081 0.840089957
P 0.666675919 0.333322688 0.665256858
Se 0.991284703 0.340471500 0.104385646
Se 0.659541032 0.650848147 0.115583830
Se 0.349149630 0.008718116 0.103624567
Se 0.659528500 0.008715297 0.394837755
Se 0.349151853 0.340458968 0.367889769
Se 0.991281884 0.650850370 0.362578424
Se 0.008715297 0.659528500 0.877441391
Se 0.340458968 0.349151853 0.866794356
Se 0.650850370 0.991281884 0.874766125
Se 0.340471500 0.991284703 0.617597467
Se 0.650848147 0.659541032 0.625020834
Se 0.008718116 0.349149630 0.625805075


 
K_POINTS {automatic}
6 6 6 1 1 1