&CONTROL
  calculation = 'scf',
  pseudo_dir = './',
  outdir='./'
  prefix = 'test',
etot_conv_thr=1.D-7,
forc_conv_thr=2.D-6,
nstep =200,
/
&SYSTEM
  ibrav = 4,
  celldm(1) = 12.0809,
  celldm(3) = 2.0867,
  nat = 20,
  ntyp = 4,
  ecutwfc = 40,
  ecutrho = 320,
  occupations = 'smearing',
  smearing = 'gaussian',
  degauss = 0.02,
  input_dft = 'pbe',
  vdw_corr = 'grimme-d2',
  london_s6 = 0.5,
/
&ELECTRONS
  electron_maxstep = 100,
  diagonalization = 'david',
  conv_thr = 1.0d-6,
  mixing_beta = 0.12,
/
&IONS
/
&CELL
  press = 0.0,
/
ATOMIC_SPECIES
P   30.974    p_pbe_v1.5.uspp.F.UPF
Cu  63.546    cu_pbe_v1.2.uspp.F.UPF
In  114.818   in_pbe_v1.4.uspp.F.UPF
Se  78.971    se_pbe_v1.uspp.F.UPF

ATOMIC_POSITIONS (crystal)
Cu 0.666700000 0.333300000 0.303863034
Cu 0.333300000 0.666700000 0.700621449
In 0.000000000 0.000000000 0.239729478
In 0.000000000 0.000000000 0.735188826
P 0.333300000 0.666700000 0.173519493
P 0.333300000 0.666700000 0.328544923
P 0.666700000 0.333300000 -0.167163433
P 0.666700000 0.333300000 0.665309636
Se 0.009500000 0.340100000 0.135520060
Se -0.340100000 -0.330600000 0.115707403
Se 0.330600000 -0.009500000 0.127392120
Se -0.340100000 -0.009500000 0.373450494
Se 0.330600000 0.340100000 0.380927299
Se 0.009500000 -0.330600000 0.379695831
Se -0.009500000 -0.340100000 -0.122264389
Se 0.340100000 0.330600000 -0.100103466
Se -0.330600000 0.009500000 -0.101921704
Se 0.340100000 0.009500000 0.614544562
Se -0.330600000 -0.340100000 0.613572002
Se -0.009500000 0.330600000 0.620375365

 
K_POINTS {automatic}
6 6 6 1 1 1